0 83 86
1 86 92
2 90 59
3 93 35
4 77 15
5 63 26
6 62 27
7 49 21
8 183 186
9 186 192
10 190 159
11 193 135
12 177 115
13 163 126
14 162 127
15 149 121
16 290 219
17 245 227
18 237 249
19 242 279
20 249 293
21 261 298
22 264 277
23 288 275
24 346 385

